
Log for 'disaster1' Clone_1 (V12.7.1.0) Sun May 21 17:49:41 2017


Log for 'disaster1' Clone_1 (V12.7.1.0) Sun May 21 17:57:58 2017


Log for 'disaster1' Clone_1 (V12.7.1.0) Sun May 21 18:01:56 2017


Log for 'disaster1' Clone_1 (V12.7.1.0) Sun May 21 18:02:15 2017


Log for 'disaster1' Clone_1 (V12.7.1.0) Mon May 22 23:05:34 2017


Log for 'disaster1' Clone_1 (V12.7.1.0) Mon May 22 23:06:32 2017


Log for 'disaster1' Clone_1 (V12.7.1.0) Thu May 25 18:45:23 2017


Log for 'disaster1' Clone_1 (V12.7.1.0) Thu May 25 18:46:13 2017


Log for 'disaster1' Clone_1 (V12.7.1.0) Thu May 25 18:47:17 2017


Log for 'disaster1' Clone_1 (V12.7.1.0) Thu May 25 23:28:43 2017


Log for 'disaster1' Clone_1 (V12.7.1.0) Thu May 25 23:29:36 2017


Log for 'disaster1' Clone_1 (V12.7.1.0) Thu May 25 23:30:03 2017


Log for 'disaster1' Clone_1 (V12.7.1.0) Thu May 25 23:31:23 2017


Log for 'disaster1' Clone_1 (V12.7.1.0) Thu May 25 23:34:34 2017


Log for 'disaster1' Clone_1 (V12.7.1.0) Thu May 25 23:39:22 2017


Log for 'disaster1' Clone_1 (V12.7.1.0) Thu May 25 23:42:00 2017


Log for 'disaster1' Clone_1 (V12.7.1.0) Thu May 25 23:49:09 2017


Log for 'disaster1' Clone_1 (V12.7.1.0) Thu May 25 23:54:51 2017


Log for 'disaster1' Clone_1 (V12.7.1.0) Thu May 25 23:55:47 2017


Log for 'disaster1' Clone_1 (V12.7.1.0) Fri May 26 00:03:39 2017


Log for 'disaster1' Clone_1 (V12.7.1.0) Fri May 26 00:09:05 2017


Log for 'disaster1' Clone_1 (V12.7.1.0) Fri May 26 00:11:30 2017


Log for 'disaster1' Clone_1 (V12.7.1.0) Fri May 26 00:46:47 2017


Log for 'disaster1' Clone_1 (V12.7.1.0) Fri May 26 07:49:32 2017


Log for 'disaster1' Clone_1 (V12.7.1.0) Fri May 26 07:56:39 2017

Tried aggregator 0 times.
No LP presolve or aggregator reductions.
Presolve time = 0.02 sec. (4.88 ticks)
Barrier time = 0.03 sec. (7.56 ticks)

Dual simplex solved model.


Log for 'disaster1' Clone_1 (V12.7.1.0) Fri May 26 14:08:29 2017

Presolve time = 0.02 sec. (4.46 ticks)

Dual simplex solved model.


Log for 'disaster1' Clone_1 (V12.7.1.0) Fri May 26 14:12:22 2017

Tried aggregator 0 times.
Reduced presolve eliminated 38 rows and 19 columns.
Reduced LP has 4427 rows, 19309 columns, and 77248 nonzeros.
Presolve time = 0.02 sec. (8.04 ticks)
Barrier time = 0.03 sec. (9.01 ticks)

Dual simplex solved model.


Log for 'disaster1' Clone_1 (V12.7.1.0) Fri May 26 14:34:58 2017


Log for 'disaster1' Clone_1 (V12.7.1.0) Fri May 26 14:35:45 2017


Log for 'disaster1' Clone_1 (V12.7.1.0) Fri May 26 14:41:16 2017

Tried aggregator 0 times.
No LP presolve or aggregator reductions.
Presolve time = 0.00 sec. (0.00 ticks)
Symmetry aggregator did 16 additional substitutions.
Presolve time = 0.00 sec. (0.00 ticks)
Barrier time = 0.00 sec. (0.00 ticks)
Barrier time = 0.00 sec. (0.01 ticks)

Dual simplex solved model.


Log for 'disaster1' Clone_1 (V12.7.1.0) Fri May 26 14:42:06 2017


Log for 'disaster1' Clone_1 (V12.7.1.0) Fri May 26 14:42:31 2017

Tried aggregator 0 times.
No LP presolve or aggregator reductions.
Presolve time = 0.00 sec. (1.51 ticks)
Barrier time = 0.01 sec. (1.87 ticks)

Dual simplex solved model.


Log for 'disaster1' Clone_1 (V12.7.1.0) Fri May 26 14:42:50 2017

Tried aggregator 0 times.
No LP presolve or aggregator reductions.
Presolve time = 0.00 sec. (0.00 ticks)
Barrier time = 0.00 sec. (0.00 ticks)

Dual simplex solved model.


Log for 'disaster1' Clone_1 (V12.7.1.0) Fri May 26 17:42:29 2017


Log for 'disaster1' Clone_1 (V12.7.1.0) Fri May 26 17:46:58 2017

Presolve time = 0.00 sec. (0.66 ticks)

Dual simplex solved model.


Log for 'disaster1' Clone_1 (V12.7.1.0) Fri May 26 17:51:24 2017

Tried aggregator 0 times.
No LP presolve or aggregator reductions.
Presolve time = 0.00 sec. (0.00 ticks)
Barrier time = 0.00 sec. (0.00 ticks)

Dual simplex solved model.


Log for 'disaster1' Clone_1 (V12.7.1.0) Fri May 26 17:55:17 2017

Presolve time = 0.02 sec. (4.46 ticks)

Dual simplex solved model.


Log for 'disaster1' Clone_1 (V12.7.1.0) Fri May 26 17:57:41 2017


Log for 'disaster1' Clone_1 (V12.7.1.0) Fri May 26 18:14:47 2017


Log for 'disaster1' Clone_1 (V12.7.1.0) Fri May 26 18:27:32 2017


Log for 'disaster1' Clone_1 (V12.7.1.0) Fri May 26 18:29:27 2017


Log for 'disaster1' Clone_1 (V12.7.1.0) Fri May 26 19:02:51 2017


Log for 'disaster1' Clone_1 (V12.7.1.0) Fri May 26 19:03:32 2017


Log for 'disaster1' Clone_1 (V12.7.1.0) Fri May 26 19:04:52 2017


Log for 'disaster1' Clone_1 (V12.7.1.0) Fri May 26 19:06:31 2017


Log for 'disaster1' Clone_1 (V12.7.1.0) Fri May 26 19:09:48 2017


Log for 'disaster1' Clone_1 (V12.7.1.0) Fri May 26 19:10:57 2017


Log for 'disaster1' Clone_1 (V12.7.1.0) Fri May 26 19:11:52 2017


Log for 'disaster1' Clone_1 (V12.7.1.0) Fri May 26 19:13:30 2017


Log for 'disaster1' Clone_1 (V12.7.1.0) Fri May 26 19:19:06 2017


Log for 'disaster1' Clone_1 (V12.7.1.0) Fri May 26 19:20:37 2017


Log for 'disaster1' Clone_1 (V12.7.1.0) Fri May 26 19:33:54 2017


Log for 'disaster1' Clone_1 (V12.7.1.0) Fri May 26 19:56:52 2017


Log for 'disaster1' Clone_1 (V12.7.1.0) Tue May 30 10:49:42 2017


Log for 'disaster1' Clone_1 (V12.7.1.0) Tue May 30 10:50:06 2017

Tried aggregator 0 times.
Reduced presolve eliminated 0 rows and 5 columns.
Reduced LP has 3732 rows, 14534 columns, and 75207 nonzeros.
Presolve time = 0.02 sec. (7.26 ticks)
Barrier time = 0.03 sec. (7.87 ticks)

Dual simplex solved model.


Log for 'disaster1' Clone_1 (V12.7.1.0) Tue May 30 10:52:13 2017

Tried aggregator 0 times.
Reduced presolve eliminated 0 rows and 5 columns.
Reduced LP has 3732 rows, 14534 columns, and 75207 nonzeros.
Presolve time = 0.02 sec. (7.26 ticks)
Barrier time = 0.03 sec. (7.87 ticks)

Dual simplex solved model.


Log for 'disaster1' Clone_1 (V12.7.1.0) Tue May 30 10:53:38 2017

Tried aggregator 0 times.
Reduced presolve eliminated 0 rows and 52 columns.
Reduced LP has 19540 rows, 76607 columns, and 393089 nonzeros.
Presolve time = 0.07 sec. (38.14 ticks)
Barrier time = 0.15 sec. (75.02 ticks)

Dual simplex solved model.


Log for 'disaster1' Clone_1 (V12.7.1.0) Tue May 30 11:09:18 2017

Tried aggregator 0 times.
Reduced presolve eliminated 0 rows and 126 columns.
Reduced LP has 43773 rows, 171640 columns, and 879584 nonzeros.
Presolve time = 0.14 sec. (85.45 ticks)
Barrier time = 0.80 sec. (326.16 ticks)

Dual simplex solved model.


Log for 'disaster1' Clone_1 (V12.7.1.0) Sat Jun  3 13:58:24 2017

Tried aggregator 0 times.
Reduced presolve eliminated 0 rows and 126 columns.
Reduced LP has 44277 rows, 171892 columns, and 881348 nonzeros.
Presolve time = 0.14 sec. (85.62 ticks)
Barrier time = 2.08 sec. (840.76 ticks)

Dual simplex solved model.


Log for 'disaster1' Clone_1 (V12.7.1.0) Sat Jun  3 14:10:29 2017

Tried aggregator 0 times.
Reduced presolve eliminated 0 rows and 126 columns.
Reduced LP has 44277 rows, 171892 columns, and 881348 nonzeros.
Presolve time = 0.21 sec. (85.62 ticks)
Barrier time = 2.40 sec. (840.76 ticks)

Dual simplex solved model.


Log for 'disaster1' Clone_1 (V12.7.1.0) Sat Jun  3 14:33:43 2017

Tried aggregator 0 times.
Reduced presolve eliminated 0 rows and 126 columns.
Reduced LP has 43773 rows, 171640 columns, and 879584 nonzeros.
Presolve time = 0.13 sec. (85.45 ticks)
Barrier time = 0.77 sec. (326.16 ticks)

Dual simplex solved model.


Log for 'disaster1' Clone_1 (V12.7.1.0) Sat Jun  3 15:03:22 2017

Tried aggregator 0 times.
Reduced presolve eliminated 0 rows and 126 columns.
Reduced LP has 44109 rows, 171808 columns, and 880928 nonzeros.
Presolve time = 0.14 sec. (85.58 ticks)
Barrier time = 1.90 sec. (746.52 ticks)

Dual simplex solved model.


Log for 'disaster1' Clone_1 (V12.7.1.0) Sat Jun  3 17:52:40 2017


Log for 'disaster1' Clone_1 (V12.7.1.0) Sat Jun  3 17:57:13 2017

Tried aggregator 0 times.
Reduced presolve eliminated 0 rows and 120 columns.
Reduced LP has 43372 rows, 172874 columns, and 882035 nonzeros.
Presolve time = 0.14 sec. (85.71 ticks)
Parallel mode: using up to 6 threads for barrier.

***NOTE: Found 16 dense columns.

Number of nonzeros in lower triangle of A*A' = 888534
Using Approximate Minimum Degree ordering
Total time for automatic ordering = 0.12 sec. (95.96 ticks)
Summary statistics for Cholesky factor:
  Threads                   = 6
  Rows in Factor            = 43388
  Integer space required    = 183201
  Total non-zeros in factor = 1946264
  Total FP ops to factor    = 261926250
 Itn      Primal Obj        Dual Obj  Prim Inf Upper Inf  Dual Inf Inf Ratio
   0   3.4876660e+04  -1.6116532e+07  4.90e+07  8.43e+06  1.20e+05  1.00e+00
   1   2.9636146e+04  -1.1379244e+07  3.89e+07  6.70e+06  8.45e+04  1.35e-01
   2   1.6264067e+04  -7.9678813e+06  1.22e+07  2.10e+06  5.92e+04  6.77e-02
   3   1.3945960e+04  -4.1102316e+06  7.91e+06  1.36e+06  3.06e+04  6.64e-02
   4   8.9452247e+03  -1.9364666e+06  1.71e+06  2.94e+05  1.44e+04  1.20e-01
   5   5.7792869e+03  -7.6108928e+05  4.08e+05  7.03e+04  5.69e+03  2.81e-01
   6   3.2873486e+03  -3.3568216e+05  1.02e+05  1.76e+04  2.52e+03  6.14e-01
   7   2.6164889e+03  -2.0663459e+05  3.86e+04  6.64e+03  1.56e+03  8.97e-01
   8   2.3412233e+03  -1.4812741e+05  1.73e+04  2.98e+03  1.12e+03  1.20e+00
   9   2.0834073e+03  -5.1671006e+04  4.42e+03  7.60e+02  4.01e+02  3.16e+00
  10   1.7554230e+03  -1.3357320e+04  8.64e+02  1.49e+02  1.13e+02  1.13e+01
  11   1.6601265e+03  -1.0209586e+04  4.48e+02  7.72e+01  8.92e+01  1.44e+01
  12   1.5884372e+03  -6.1776671e+03  2.98e+02  5.12e+01  5.83e+01  2.22e+01
  13   1.5423015e+03  -5.3207935e+03  2.48e+02  4.27e+01  5.16e+01  2.51e+01
 Barrier aborted.
Barrier time = 1.39 sec. (1155.17 ticks)

Dual simplex solved model.


Log for 'disaster1' Clone_1 (V12.7.1.0) Sat Jun  3 18:22:56 2017

Tried aggregator 0 times.
Reduced presolve eliminated 0 rows and 120 columns.
Reduced LP has 43724 rows, 174466 columns, and 885565 nonzeros.
Presolve time = 0.13 sec. (86.21 ticks)
Parallel mode: using up to 6 threads for barrier.

***NOTE: Found 16 dense columns.

Number of nonzeros in lower triangle of A*A' = 895074
Using Approximate Minimum Degree ordering
Total time for automatic ordering = 0.12 sec. (96.99 ticks)
Summary statistics for Cholesky factor:
  Threads                   = 6
  Rows in Factor            = 43740
  Integer space required    = 181203
  Total non-zeros in factor = 1964324
  Total FP ops to factor    = 262600922
 Itn      Primal Obj        Dual Obj  Prim Inf Upper Inf  Dual Inf Inf Ratio
   0   3.5212168e+04  -1.6614718e+07  4.94e+07  8.49e+06  1.21e+05  1.00e+00
   1   3.0189047e+04  -1.1828070e+07  3.98e+07  6.83e+06  8.59e+04  1.28e-01
   2   1.6823093e+04  -8.0838966e+06  1.31e+07  2.25e+06  5.88e+04  6.39e-02
   3   1.4155405e+04  -4.1955843e+06  8.14e+06  1.40e+06  3.05e+04  6.39e-02
   4   9.0099257e+03  -1.9670463e+06  1.75e+06  3.00e+05  1.43e+04  1.16e-01
   5   5.7986016e+03  -8.7113208e+05  4.18e+05  7.18e+04  6.37e+03  2.46e-01
   6   3.3903522e+03  -3.5784255e+05  1.04e+05  1.79e+04  2.63e+03  5.78e-01
   7   2.7072946e+03  -2.0427340e+05  4.32e+04  7.41e+03  1.51e+03  9.01e-01
   8   2.2784882e+03  -1.4296394e+05  1.35e+04  2.33e+03  1.06e+03  1.23e+00
   9   2.0651788e+03  -4.0478023e+04  3.46e+03  5.94e+02  3.10e+02  3.97e+00
  10   1.7368555e+03  -1.0884092e+04  6.63e+02  1.14e+02  9.24e+01  1.35e+01
  11   1.6529350e+03  -8.3678676e+03  3.60e+02  6.18e+01  7.37e+01  1.69e+01
  12   1.5895931e+03  -5.2376358e+03  2.58e+02  4.43e+01  5.02e+01  2.52e+01
  13   1.5448644e+03  -4.5478456e+03  2.19e+02  3.76e+01  4.49e+01  2.82e+01
  14   1.5058624e+03  -4.1903824e+03  1.59e+02  2.73e+01  4.22e+01  3.01e+01
  15   1.4529409e+03  -3.9910676e+03  1.06e+02  1.82e+01  4.07e+01  3.13e+01
  16   1.3989298e+03  -2.2304203e+03  6.88e+01  1.18e+01  2.71e+01  4.76e+01
  17   1.3140390e+03  -5.1880848e+02  4.02e+01  6.90e+00  1.36e+01  9.63e+01
  18   1.2902540e+03   1.7658683e+02  3.59e+01  6.17e+00  7.70e+00  1.73e+02
 Barrier aborted.
Barrier time = 1.80 sec. (1469.27 ticks)

Dual simplex solved model.

